4 
5  24 44 
6  00 15 30 45 
7  00 15 30 45 
8  00 15 30 45 
9  00 15 28 43 58 
10  13 28 43 58 
11  13 28 43 58 
12  13 28 43 58 
13  13 29 44 59 
14  14 30 44 59 
15  14 27 42 57 
16  12 27 42 57 
17  12 27 42 57 
18  12 27 44 59 
19  14 28 43 58 
20  13 
21 
